n_res = 4;
rc = [ 21, 21, 20, 21 ];
n_tasks = 90;
d = [ 8, 1, 2, 1, 8, 9, 6, 10, 7, 3, 7, 2, 5, 5, 6, 6, 9, 4, 7, 5, 3, 8, 8, 10, 2, 2, 5, 1, 4, 3, 7, 4, 10, 8, 10, 2, 6, 9, 3, 5, 8, 9, 5, 10, 7, 5, 2, 5, 3, 5, 9, 3, 10, 6, 7, 8, 8, 1, 5, 8, 4, 5, 6, 2, 4, 8, 5, 9, 8, 7, 7, 8, 8, 9, 2, 1, 8, 7, 10, 7, 9, 5, 8, 1, 8, 9, 5, 9, 9, 9 ];
rr = [| 5, 0, 0, 4, 4, 0, 0, 5, 2, 4, 4, 7, 9, 5, 9, 0, 4, 2, 2, 9, 2, 3, 5, 3, 7, 10, 3, 10, 10, 2, 0, 3, 4, 10, 4, 5, 7, 0, 0, 8, 2, 6, 0, 0, 7, 7, 10, 0, 6, 0, 0, 0, 10, 8, 2, 7, 10, 7, 9, 0, 5, 2, 3, 8, 9, 6, 2, 5, 0, 8, 2, 4, 5, 5, 2, 3, 9, 4, 6, 0, 1, 5, 9, 1, 0, 3, 7, 3, 3, 3
      | 0, 0, 3, 4, 10, 9, 9, 8, 8, 8, 4, 9, 3, 0, 10, 6, 10, 4, 0, 7, 9, 7, 0, 0, 0, 4, 3, 8, 10, 7, 0, 2, 1, 10, 0, 10, 3, 0, 0, 2, 0, 8, 0, 10, 0, 6, 1, 7, 5, 3, 4, 1, 0, 0, 7, 0, 4, 7, 7, 0, 0, 3, 10, 6, 0, 0, 2, 5, 0, 5, 1, 0, 0, 1, 1, 5, 0, 9, 10, 7, 4, 2, 10, 8, 0, 0, 6, 0, 0, 1
      | 8, 10, 0, 3, 4, 1, 8, 9, 5, 1, 6, 4, 5, 4, 7, 3, 10, 0, 3, 9, 0, 0, 1, 0, 3, 0, 0, 10, 3, 0, 7, 0, 4, 8, 2, 3, 9, 1, 0, 2, 2, 3, 5, 0, 10, 0, 3, 5, 3, 8, 5, 4, 5, 9, 7, 7, 0, 1, 3, 7, 2, 9, 9, 0, 8, 4, 8, 0, 0, 10, 0, 2, 5, 0, 10, 5, 2, 4, 8, 8, 4, 2, 10, 0, 4, 4, 0, 0, 9, 0
      | 6, 0, 7, 1, 5, 0, 3, 7, 1, 6, 10, 3, 0, 7, 2, 0, 1, 9, 0, 2, 6, 5, 5, 1, 0, 5, 9, 10, 9, 2, 7, 2, 0, 0, 5, 0, 3, 7, 7, 4, 0, 0, 2, 6, 6, 2, 2, 10, 5, 5, 9, 0, 7, 7, 4, 9, 2, 9, 2, 5, 0, 5, 10, 6, 6, 0, 6, 10, 2, 3, 2, 9, 1, 8, 10, 7, 8, 0, 1, 0, 0, 3, 4, 10, 3, 4, 0, 6, 0, 0 |];
suc = [ { 6, 10, 12 },
       { 4, 5, 9 },
       { 7, 36 },
       { 11, 42, 55 },
       { 15, 22, 27 },
       { 11, 51 },
       { 8, 20 },
       { 14, 51, 59 },
       { 13, 24 },
       { 19, 28, 32 },
       { 25, 29, 69 },
       { 42, 74 },
       { 40 },
       { 18, 43, 45 },
       { 16, 23, 34 },
       { 17 },
       { 47, 86 },
       { 21, 30, 31 },
       { 33, 65, 84 },
       { 37, 39, 72 },
       { 46, 57 },
       { 38 },
       { 60, 76, 77 },
       { 88 },
       { 26, 58, 63 },
       { 47 },
       { 53, 56, 61 },
       { 41 },
       { 73 },
       { 81 },
       { 37, 55 },
       { 34, 35, 49 },
       { 67 },
       { 37, 53 },
       { 41 },
       { 44, 47 },
       { 67 },
       { 44, 54, 81 },
       { 49, 61 },
       { 51, 74 },
       { 62, 71 },
       { 50, 79 },
       { 49, 50 },
       { 56, 58, 61 },
       { 72 },
       { 48, 66, 74 },
       { 52, 79, 83 },
       { 64 },
       { 77 },
       { 65, 80, 85 },
       { 53, 66, 73 },
       { 78 },
       { 64, 71 },
       { 71 },
       { 83 },
       { 75, 90 },
       { 66, 70, 75 },
       { 59 },
       { 82 },
       { 65, 85 },
       { 63, 68 },
       { 67, 68, 72 },
       { 77 },
       { 81 },
       { 83 },
       { 84 },
       { 70 },
       { 78, 79 },
       { 70, 75, 84 },
       { 80 },
       { 80 },
       { 73, 76, 87 },
       { 82 },
       { 90 },
       { 76, 82 },
       { 86 },
       { 78 },
       { 89 },
       { 87 },
       { 87 },
       { 85 },
       { 86 },
       { 88 },
       { 89 },
       { 88 },
       { 89 },
       { 90 },
       {  },
       {  },
       {  } ];
